c This is a DIMACS SAT-instances file to check the chromatic number
c 
c The file Name               : GraphR1.txt
c The number of vertices      : 38
c 
c The chosen number of colour : 4
c 
p cnf 152 646
1 39 77 115 0
2 40 78 116 0
3 41 79 117 0
4 42 80 118 0
5 43 81 119 0
6 44 82 120 0
7 45 83 121 0
8 46 84 122 0
9 47 85 123 0
10 48 86 124 0
11 49 87 125 0
12 50 88 126 0
13 51 89 127 0
14 52 90 128 0
15 53 91 129 0
16 54 92 130 0
17 55 93 131 0
18 56 94 132 0
19 57 95 133 0
20 58 96 134 0
21 59 97 135 0
22 60 98 136 0
23 61 99 137 0
24 62 100 138 0
25 63 101 139 0
26 64 102 140 0
27 65 103 141 0
28 66 104 142 0
29 67 105 143 0
30 68 106 144 0
31 69 107 145 0
32 70 108 146 0
33 71 109 147 0
34 72 110 148 0
35 73 111 149 0
36 74 112 150 0
37 75 113 151 0
38 76 114 152 0
-1 -39 0
-1 -77 0
-1 -115 0
-39 -77 0
-39 -115 0
-77 -115 0
-2 -40 0
-2 -78 0
-2 -116 0
-40 -78 0
-40 -116 0
-78 -116 0
-3 -41 0
-3 -79 0
-3 -117 0
-41 -79 0
-41 -117 0
-79 -117 0
-4 -42 0
-4 -80 0
-4 -118 0
-42 -80 0
-42 -118 0
-80 -118 0
-5 -43 0
-5 -81 0
-5 -119 0
-43 -81 0
-43 -119 0
-81 -119 0
-6 -44 0
-6 -82 0
-6 -120 0
-44 -82 0
-44 -120 0
-82 -120 0
-7 -45 0
-7 -83 0
-7 -121 0
-45 -83 0
-45 -121 0
-83 -121 0
-8 -46 0
-8 -84 0
-8 -122 0
-46 -84 0
-46 -122 0
-84 -122 0
-9 -47 0
-9 -85 0
-9 -123 0
-47 -85 0
-47 -123 0
-85 -123 0
-10 -48 0
-10 -86 0
-10 -124 0
-48 -86 0
-48 -124 0
-86 -124 0
-11 -49 0
-11 -87 0
-11 -125 0
-49 -87 0
-49 -125 0
-87 -125 0
-12 -50 0
-12 -88 0
-12 -126 0
-50 -88 0
-50 -126 0
-88 -126 0
-13 -51 0
-13 -89 0
-13 -127 0
-51 -89 0
-51 -127 0
-89 -127 0
-14 -52 0
-14 -90 0
-14 -128 0
-52 -90 0
-52 -128 0
-90 -128 0
-15 -53 0
-15 -91 0
-15 -129 0
-53 -91 0
-53 -129 0
-91 -129 0
-16 -54 0
-16 -92 0
-16 -130 0
-54 -92 0
-54 -130 0
-92 -130 0
-17 -55 0
-17 -93 0
-17 -131 0
-55 -93 0
-55 -131 0
-93 -131 0
-18 -56 0
-18 -94 0
-18 -132 0
-56 -94 0
-56 -132 0
-94 -132 0
-19 -57 0
-19 -95 0
-19 -133 0
-57 -95 0
-57 -133 0
-95 -133 0
-20 -58 0
-20 -96 0
-20 -134 0
-58 -96 0
-58 -134 0
-96 -134 0
-21 -59 0
-21 -97 0
-21 -135 0
-59 -97 0
-59 -135 0
-97 -135 0
-22 -60 0
-22 -98 0
-22 -136 0
-60 -98 0
-60 -136 0
-98 -136 0
-23 -61 0
-23 -99 0
-23 -137 0
-61 -99 0
-61 -137 0
-99 -137 0
-24 -62 0
-24 -100 0
-24 -138 0
-62 -100 0
-62 -138 0
-100 -138 0
-25 -63 0
-25 -101 0
-25 -139 0
-63 -101 0
-63 -139 0
-101 -139 0
-26 -64 0
-26 -102 0
-26 -140 0
-64 -102 0
-64 -140 0
-102 -140 0
-27 -65 0
-27 -103 0
-27 -141 0
-65 -103 0
-65 -141 0
-103 -141 0
-28 -66 0
-28 -104 0
-28 -142 0
-66 -104 0
-66 -142 0
-104 -142 0
-29 -67 0
-29 -105 0
-29 -143 0
-67 -105 0
-67 -143 0
-105 -143 0
-30 -68 0
-30 -106 0
-30 -144 0
-68 -106 0
-68 -144 0
-106 -144 0
-31 -69 0
-31 -107 0
-31 -145 0
-69 -107 0
-69 -145 0
-107 -145 0
-32 -70 0
-32 -108 0
-32 -146 0
-70 -108 0
-70 -146 0
-108 -146 0
-33 -71 0
-33 -109 0
-33 -147 0
-71 -109 0
-71 -147 0
-109 -147 0
-34 -72 0
-34 -110 0
-34 -148 0
-72 -110 0
-72 -148 0
-110 -148 0
-35 -73 0
-35 -111 0
-35 -149 0
-73 -111 0
-73 -149 0
-111 -149 0
-36 -74 0
-36 -112 0
-36 -150 0
-74 -112 0
-74 -150 0
-112 -150 0
-37 -75 0
-37 -113 0
-37 -151 0
-75 -113 0
-75 -151 0
-113 -151 0
-38 -76 0
-38 -114 0
-38 -152 0
-76 -114 0
-76 -152 0
-114 -152 0
-11 -18 0
-49 -56 0
-87 -94 0
-125 -132 0
-11 -25 0
-49 -63 0
-87 -101 0
-125 -139 0
-11 -20 0
-49 -58 0
-87 -96 0
-125 -134 0
-11 -9 0
-49 -47 0
-87 -85 0
-125 -123 0
-11 -8 0
-49 -46 0
-87 -84 0
-125 -122 0
-18 -6 0
-56 -44 0
-94 -82 0
-132 -120 0
-18 -27 0
-56 -65 0
-94 -103 0
-132 -141 0
-18 -38 0
-56 -76 0
-94 -114 0
-132 -152 0
-18 -33 0
-56 -71 0
-94 -109 0
-132 -147 0
-1 -21 0
-39 -59 0
-77 -97 0
-115 -135 0
-1 -8 0
-39 -46 0
-77 -84 0
-115 -122 0
-1 -31 0
-39 -69 0
-77 -107 0
-115 -145 0
-1 -35 0
-39 -73 0
-77 -111 0
-115 -149 0
-1 -24 0
-39 -62 0
-77 -100 0
-115 -138 0
-21 -36 0
-59 -74 0
-97 -112 0
-135 -150 0
-21 -38 0
-59 -76 0
-97 -114 0
-135 -152 0
-21 -27 0
-59 -65 0
-97 -103 0
-135 -141 0
-21 -9 0
-59 -47 0
-97 -85 0
-135 -123 0
-22 -29 0
-60 -67 0
-98 -105 0
-136 -143 0
-22 -6 0
-60 -44 0
-98 -82 0
-136 -120 0
-22 -15 0
-60 -53 0
-98 -91 0
-136 -129 0
-22 -24 0
-60 -62 0
-98 -100 0
-136 -138 0
-22 -23 0
-60 -61 0
-98 -99 0
-136 -137 0
-29 -17 0
-67 -55 0
-105 -93 0
-143 -131 0
-29 -13 0
-67 -51 0
-105 -89 0
-143 -127 0
-29 -32 0
-67 -70 0
-105 -108 0
-143 -146 0
-29 -16 0
-67 -54 0
-105 -92 0
-143 -130 0
-8 -26 0
-46 -64 0
-84 -102 0
-122 -140 0
-8 -34 0
-46 -72 0
-84 -110 0
-122 -148 0
-8 -37 0
-46 -75 0
-84 -113 0
-122 -151 0
-26 -16 0
-64 -54 0
-102 -92 0
-140 -130 0
-26 -25 0
-64 -63 0
-102 -101 0
-140 -139 0
-26 -3 0
-64 -41 0
-102 -79 0
-140 -117 0
-26 -5 0
-64 -43 0
-102 -81 0
-140 -119 0
-17 -6 0
-55 -44 0
-93 -82 0
-131 -120 0
-17 -25 0
-55 -63 0
-93 -101 0
-131 -139 0
-17 -19 0
-55 -57 0
-93 -95 0
-131 -133 0
-17 -32 0
-55 -70 0
-93 -108 0
-131 -146 0
-14 -31 0
-52 -69 0
-90 -107 0
-128 -145 0
-14 -27 0
-52 -65 0
-90 -103 0
-128 -141 0
-14 -20 0
-52 -58 0
-90 -96 0
-128 -134 0
-14 -32 0
-52 -70 0
-90 -108 0
-128 -146 0
-14 -15 0
-52 -53 0
-90 -91 0
-128 -129 0
-31 -7 0
-69 -45 0
-107 -83 0
-145 -121 0
-31 -12 0
-69 -50 0
-107 -88 0
-145 -126 0
-31 -4 0
-69 -42 0
-107 -80 0
-145 -118 0
-2 -12 0
-40 -50 0
-78 -88 0
-116 -126 0
-2 -16 0
-40 -54 0
-78 -92 0
-116 -130 0
-2 -4 0
-40 -42 0
-78 -80 0
-116 -118 0
-2 -38 0
-40 -76 0
-78 -114 0
-116 -152 0
-2 -23 0
-40 -61 0
-78 -99 0
-116 -137 0
-12 -32 0
-50 -70 0
-88 -108 0
-126 -146 0
-12 -20 0
-50 -58 0
-88 -96 0
-126 -134 0
-12 -13 0
-50 -51 0
-88 -89 0
-126 -127 0
-36 -30 0
-74 -68 0
-112 -106 0
-150 -144 0
-36 -38 0
-74 -76 0
-112 -114 0
-150 -152 0
-36 -16 0
-74 -54 0
-112 -92 0
-150 -130 0
-36 -3 0
-74 -41 0
-112 -79 0
-150 -117 0
-15 -19 0
-53 -57 0
-91 -95 0
-129 -133 0
-15 -34 0
-53 -72 0
-91 -110 0
-129 -148 0
-15 -28 0
-53 -66 0
-91 -104 0
-129 -142 0
-19 -23 0
-57 -61 0
-95 -99 0
-133 -137 0
-19 -5 0
-57 -43 0
-95 -81 0
-133 -119 0
-19 -30 0
-57 -68 0
-95 -106 0
-133 -144 0
-30 -35 0
-68 -73 0
-106 -111 0
-144 -149 0
-30 -23 0
-68 -61 0
-106 -99 0
-144 -137 0
-30 -6 0
-68 -44 0
-106 -82 0
-144 -120 0
-35 -27 0
-73 -65 0
-111 -103 0
-149 -141 0
-35 -7 0
-73 -45 0
-111 -83 0
-149 -121 0
-35 -5 0
-73 -43 0
-111 -81 0
-149 -119 0
-10 -37 0
-48 -75 0
-86 -113 0
-124 -151 0
-10 -24 0
-48 -62 0
-86 -100 0
-124 -138 0
-10 -4 0
-48 -42 0
-86 -80 0
-124 -118 0
-10 -6 0
-48 -44 0
-86 -82 0
-124 -120 0
-10 -3 0
-48 -41 0
-86 -79 0
-124 -117 0
-37 -13 0
-75 -51 0
-113 -89 0
-151 -127 0
-37 -33 0
-75 -71 0
-113 -109 0
-151 -147 0
-37 -20 0
-75 -58 0
-113 -96 0
-151 -134 0
-13 -28 0
-51 -66 0
-89 -104 0
-127 -142 0
-13 -5 0
-51 -43 0
-89 -81 0
-127 -119 0
-3 -28 0
-41 -66 0
-79 -104 0
-117 -142 0
-3 -24 0
-41 -62 0
-79 -100 0
-117 -138 0
-28 -4 0
-66 -42 0
-104 -80 0
-142 -118 0
-28 -24 0
-66 -62 0
-104 -100 0
-142 -138 0
-32 -23 0
-70 -61 0
-108 -99 0
-146 -137 0
-25 -7 0
-63 -45 0
-101 -83 0
-139 -121 0
-25 -33 0
-63 -71 0
-101 -109 0
-139 -147 0
-7 -27 0
-45 -65 0
-83 -103 0
-121 -141 0
-7 -34 0
-45 -72 0
-83 -110 0
-121 -148 0
-38 -34 0
-76 -72 0
-114 -110 0
-152 -148 0
-16 -20 0
-54 -58 0
-92 -96 0
-130 -134 0
-34 -33 0
-72 -71 0
-110 -109 0
-148 -147 0
-5 -9 0
-43 -47 0
-81 -85 0
-119 -123 0
-9 -33 0
-47 -71 0
-85 -109 0
-123 -147 0
-9 -4 0
-47 -42 0
-85 -80 0
-123 -118 0
